/*********************************************
 * OPL 20.1.0.0 Data
 * Author: Chaitanya
 * Creation Date: 09-Feb-2022 at 4:57:58 pm
 *********************************************/
 
 products=4;
 processes=3;
cost=[8,15,25,-1];
hours=[15,20,10];
manu=[1,2,3,0];
assembly=[2,1,5,0];
package=[1,2,1,1];

